p cnf 576 1
576 0
w 1 0.233409
w 2 1 0
w 2 -1 1
w 3 2 0
w 3 -2 1
w 4 3 0
w 4 -3 1
w 5 4 0
w 5 -4 1
w 6 5 0
w 6 -5 1
w 7 6 0.291734
w 7 -6 0.13505
w 8 7 1
w 8 -7 0
w 9 8 0
w 9 -8 1
w 10 9 0
w 10 -9 1
w 11 10 1
w 11 -10 0
w 12 11 0.2821
w 12 -11 0.344806
w 13 12 0
w 13 -12 1
w 14 13 1
w 14 -13 0
w 15 14 0
w 15 -14 1
w 16 15 0
w 16 -15 1
w 17 16 0
w 17 -16 1
w 18 17 0.203698
w 18 -17 0.402137
w 19 18 1
w 19 -18 0
w 20 19 0
w 20 -19 1
w 21 20 1
w 21 -20 0
w 22 21 1
w 22 -21 0
w 23 22 1
w 23 -22 0
w 24 23 1
w 24 -23 0
w 25 1 1
w 25 -1 0
w 26 25 2 1
w 26 25 -2 0
w 26 -25 2 0
w 26 -25 -2 0
w 27 26 3 1
w 27 26 -3 0
w 27 -26 3 0
w 27 -26 -3 0
w 28 27 4 0
w 28 27 -4 1
w 28 -27 4 1
w 28 -27 -4 1
w 29 28 5 0
w 29 28 -5 0
w 29 -28 5 0
w 29 -28 -5 1
w 30 29 6 1
w 30 29 -6 0
w 30 -29 6 0
w 30 -29 -6 1
w 31 30 7 0
w 31 30 -7 0
w 31 -30 7 1
w 31 -30 -7 0
w 32 31 8 1
w 32 31 -8 0
w 32 -31 8 1
w 32 -31 -8 1
w 33 32 9 0
w 33 32 -9 1
w 33 -32 9 0
w 33 -32 -9 0
w 34 33 10 0.125688
w 34 33 -10 0.772445
w 34 -33 10 0.0938141
w 34 -33 -10 0.160476
w 35 34 11 0.962748
w 35 34 -11 0.363251
w 35 -34 11 0.317132
w 35 -34 -11 0.868669
w 36 35 12 0.927663
w 36 35 -12 0.102383
w 36 -35 12 0.0611789
w 36 -35 -12 0.838807
w 37 36 13 0
w 37 36 -13 0
w 37 -36 13 0
w 37 -36 -13 1
w 38 37 14 1
w 38 37 -14 0
w 38 -37 14 1
w 38 -37 -14 1
w 39 38 15 0
w 39 38 -15 1
w 39 -38 15 0
w 39 -38 -15 1
w 40 39 16 0.417509
w 40 39 -16 0.322102
w 40 -39 16 0.0571248
w 40 -39 -16 0.22644
w 41 40 17 1
w 41 40 -17 1
w 41 -40 17 0
w 41 -40 -17 1
w 42 41 18 0
w 42 41 -18 0
w 42 -41 18 1
w 42 -41 -18 0
w 43 42 19 0
w 43 42 -19 1
w 43 -42 19 0
w 43 -42 -19 0
w 44 43 20 1
w 44 43 -20 1
w 44 -43 20 1
w 44 -43 -20 0
w 45 44 21 1
w 45 44 -21 0
w 45 -44 21 0
w 45 -44 -21 0
w 46 45 22 1
w 46 45 -22 1
w 46 -45 22 0
w 46 -45 -22 1
w 47 46 23 0.913948
w 47 46 -23 0.895483
w 47 -46 23 0.96617
w 47 -46 -23 0.203388
w 48 47 24 1
w 48 47 -24 1
w 48 -47 24 0
w 48 -47 -24 1
w 49 25 1
w 49 -25 0
w 50 49 26 0.353555
w 50 49 -26 0.283781
w 50 -49 26 0.785034
w 50 -49 -26 0.0632554
w 51 50 27 1
w 51 50 -27 0
w 51 -50 27 1
w 51 -50 -27 1
w 52 51 28 0.832565
w 52 51 -28 0.396126
w 52 -51 28 0.965627
w 52 -51 -28 0.269012
w 53 52 29 1
w 53 52 -29 0
w 53 -52 29 0
w 53 -52 -29 0
w 54 53 30 0
w 54 53 -30 1
w 54 -53 30 1
w 54 -53 -30 1
w 55 54 31 1
w 55 54 -31 1
w 55 -54 31 1
w 55 -54 -31 0
w 56 55 32 0
w 56 55 -32 1
w 56 -55 32 1
w 56 -55 -32 0
w 57 56 33 0.417977
w 57 56 -33 0.0606867
w 57 -56 33 0.158469
w 57 -56 -33 0.10614
w 58 57 34 0.991034
w 58 57 -34 0.502266
w 58 -57 34 0.786241
w 58 -57 -34 0.260047
w 59 58 35 1
w 59 58 -35 0
w 59 -58 35 0
w 59 -58 -35 1
w 60 59 36 0
w 60 59 -36 0
w 60 -59 36 1
w 60 -59 -36 1
w 61 60 37 1
w 61 60 -37 0
w 61 -60 37 0
w 61 -60 -37 1
w 62 61 38 1
w 62 61 -38 1
w 62 -61 38 1
w 62 -61 -38 0
w 63 62 39 0.686951
w 63 62 -39 0.428146
w 63 -62 39 0.0384724
w 63 -62 -39 0.793091
w 64 63 40 1
w 64 63 -40 0
w 64 -63 40 0
w 64 -63 -40 1
w 65 64 41 1
w 65 64 -41 0
w 65 -64 41 0
w 65 -64 -41 1
w 66 65 42 0
w 66 65 -42 1
w 66 -65 42 0
w 66 -65 -42 1
w 67 66 43 1
w 67 66 -43 1
w 67 -66 43 0
w 67 -66 -43 0
w 68 67 44 0.0556009
w 68 67 -44 0.567096
w 68 -67 44 0.986396
w 68 -67 -44 0.324575
w 69 68 45 0.8664
w 69 68 -45 0.0115265
w 69 -68 45 0.362702
w 69 -68 -45 0.904872
w 70 69 46 0.611461
w 70 69 -46 0.934379
w 70 -69 46 0.0999748
w 70 -69 -46 0.646462
w 71 70 47 1
w 71 70 -47 0
w 71 -70 47 0
w 71 -70 -47 1
w 72 71 48 0.547461
w 72 71 -48 0.518738
w 72 -71 48 0.61998
w 72 -71 -48 0.137889
w 73 49 1
w 73 -49 0
w 74 73 50 1
w 74 73 -50 1
w 74 -73 50 0
w 74 -73 -50 0
w 75 74 51 0
w 75 74 -51 1
w 75 -74 51 1
w 75 -74 -51 1
w 76 75 52 1
w 76 75 -52 0
w 76 -75 52 1
w 76 -75 -52 0
w 77 76 53 0
w 77 76 -53 1
w 77 -76 53 0
w 77 -76 -53 0
w 78 77 54 0
w 78 77 -54 0
w 78 -77 54 1
w 78 -77 -54 0
w 79 78 55 0
w 79 78 -55 1
w 79 -78 55 1
w 79 -78 -55 1
w 80 79 56 0
w 80 79 -56 1
w 80 -79 56 1
w 80 -79 -56 0
w 81 80 57 1
w 81 80 -57 0
w 81 -80 57 0
w 81 -80 -57 0
w 82 81 58 1
w 82 81 -58 0
w 82 -81 58 0
w 82 -81 -58 1
w 83 82 59 0.55317
w 83 82 -59 0.695309
w 83 -82 59 0.20019
w 83 -82 -59 0.944569
w 84 83 60 1
w 84 83 -60 0
w 84 -83 60 0
w 84 -83 -60 0
w 85 84 61 1
w 85 84 -61 1
w 85 -84 61 0
w 85 -84 -61 1
w 86 85 62 0
w 86 85 -62 0
w 86 -85 62 0
w 86 -85 -62 1
w 87 86 63 0.246995
w 87 86 -63 0.0202827
w 87 -86 63 0.861936
w 87 -86 -63 0.327337
w 88 87 64 1
w 88 87 -64 0
w 88 -87 64 1
w 88 -87 -64 1
w 89 88 65 1
w 89 88 -65 1
w 89 -88 65 0
w 89 -88 -65 1
w 90 89 66 1
w 90 89 -66 0
w 90 -89 66 1
w 90 -89 -66 0
w 91 90 67 0.17062
w 91 90 -67 0.235406
w 91 -90 67 0.840243
w 91 -90 -67 0.136345
w 92 91 68 0
w 92 91 -68 1
w 92 -91 68 0
w 92 -91 -68 1
w 93 92 69 0.683954
w 93 92 -69 0.889702
w 93 -92 69 0.770032
w 93 -92 -69 0.011291
w 94 93 70 0
w 94 93 -70 0
w 94 -93 70 1
w 94 -93 -70 1
w 95 94 71 0.732979
w 95 94 -71 0.97672
w 95 -94 71 0.402538
w 95 -94 -71 0.789321
w 96 95 72 0.455408
w 96 95 -72 0.717747
w 96 -95 72 0.258162
w 96 -95 -72 0.175113
w 97 73 0.152275
w 97 -73 0.345733
w 98 97 74 0
w 98 97 -74 0
w 98 -97 74 1
w 98 -97 -74 1
w 99 98 75 1
w 99 98 -75 0
w 99 -98 75 1
w 99 -98 -75 1
w 100 99 76 0
w 100 99 -76 0
w 100 -99 76 1
w 100 -99 -76 0
w 101 100 77 0
w 101 100 -77 0
w 101 -100 77 0
w 101 -100 -77 1
w 102 101 78 0
w 102 101 -78 0
w 102 -101 78 0
w 102 -101 -78 1
w 103 102 79 1
w 103 102 -79 1
w 103 -102 79 0
w 103 -102 -79 1
w 104 103 80 1
w 104 103 -80 0
w 104 -103 80 1
w 104 -103 -80 1
w 105 104 81 1
w 105 104 -81 0
w 105 -104 81 1
w 105 -104 -81 0
w 106 105 82 0
w 106 105 -82 0
w 106 -105 82 0
w 106 -105 -82 1
w 107 106 83 0
w 107 106 -83 0
w 107 -106 83 0
w 107 -106 -83 1
w 108 107 84 0
w 108 107 -84 1
w 108 -107 84 1
w 108 -107 -84 1
w 109 108 85 0
w 109 108 -85 1
w 109 -108 85 1
w 109 -108 -85 0
w 110 109 86 0.314587
w 110 109 -86 0.199446
w 110 -109 86 0.910942
w 110 -109 -86 0.663642
w 111 110 87 0
w 111 110 -87 0
w 111 -110 87 1
w 111 -110 -87 0
w 112 111 88 0.237676
w 112 111 -88 0.0646518
w 112 -111 88 0.230877
w 112 -111 -88 0.47874
w 113 112 89 0.810015
w 113 112 -89 0.769452
w 113 -112 89 0.902706
w 113 -112 -89 0.231118
w 114 113 90 0
w 114 113 -90 1
w 114 -113 90 0
w 114 -113 -90 0
w 115 114 91 1
w 115 114 -91 0
w 115 -114 91 0
w 115 -114 -91 0
w 116 115 92 0
w 116 115 -92 1
w 116 -115 92 1
w 116 -115 -92 1
w 117 116 93 0
w 117 116 -93 0
w 117 -116 93 1
w 117 -116 -93 0
w 118 117 94 1
w 118 117 -94 0
w 118 -117 94 1
w 118 -117 -94 1
w 119 118 95 0
w 119 118 -95 1
w 119 -118 95 0
w 119 -118 -95 0
w 120 119 96 0.19595
w 120 119 -96 0.974358
w 120 -119 96 0.230906
w 120 -119 -96 0.880881
w 121 97 0.836413
w 121 -97 0.3095
w 122 121 98 1
w 122 121 -98 0
w 122 -121 98 0
w 122 -121 -98 0
w 123 122 99 0
w 123 122 -99 1
w 123 -122 99 0
w 123 -122 -99 0
w 124 123 100 0
w 124 123 -100 1
w 124 -123 100 1
w 124 -123 -100 0
w 125 124 101 0.366471
w 125 124 -101 0.0517253
w 125 -124 101 0.546371
w 125 -124 -101 0.897988
w 126 125 102 0
w 126 125 -102 0
w 126 -125 102 1
w 126 -125 -102 0
w 127 126 103 0
w 127 126 -103 0
w 127 -126 103 0
w 127 -126 -103 1
w 128 127 104 0.79377
w 128 127 -104 0.256198
w 128 -127 104 0.897849
w 128 -127 -104 0.166022
w 129 128 105 0.357402
w 129 128 -105 0.639625
w 129 -128 105 0.0597038
w 129 -128 -105 0.451616
w 130 129 106 0.380785
w 130 129 -106 0.871543
w 130 -129 106 0.986675
w 130 -129 -106 0.985191
w 131 130 107 0
w 131 130 -107 0
w 131 -130 107 0
w 131 -130 -107 1
w 132 131 108 1
w 132 131 -108 1
w 132 -131 108 1
w 132 -131 -108 0
w 133 132 109 0
w 133 132 -109 0
w 133 -132 109 0
w 133 -132 -109 1
w 134 133 110 0
w 134 133 -110 1
w 134 -133 110 1
w 134 -133 -110 1
w 135 134 111 1
w 135 134 -111 1
w 135 -134 111 0
w 135 -134 -111 1
w 136 135 112 1
w 136 135 -112 1
w 136 -135 112 0
w 136 -135 -112 1
w 137 136 113 1
w 137 136 -113 1
w 137 -136 113 0
w 137 -136 -113 0
w 138 137 114 1
w 138 137 -114 1
w 138 -137 114 0
w 138 -137 -114 1
w 139 138 115 0.203197
w 139 138 -115 0.791764
w 139 -138 115 0.802521
w 139 -138 -115 0.760986
w 140 139 116 0.694976
w 140 139 -116 0.112545
w 140 -139 116 0.275902
w 140 -139 -116 0.48528
w 141 140 117 0
w 141 140 -117 1
w 141 -140 117 1
w 141 -140 -117 0
w 142 141 118 0
w 142 141 -118 1
w 142 -141 118 0
w 142 -141 -118 0
w 143 142 119 0.855877
w 143 142 -119 0.0628297
w 143 -142 119 0.751313
w 143 -142 -119 0.742139
w 144 143 120 0
w 144 143 -120 1
w 144 -143 120 1
w 144 -143 -120 1
w 145 121 0
w 145 -121 1
w 146 145 122 1
w 146 145 -122 1
w 146 -145 122 0
w 146 -145 -122 1
w 147 146 123 0.956591
w 147 146 -123 0.238444
w 147 -146 123 0.430992
w 147 -146 -123 0.586717
w 148 147 124 1
w 148 147 -124 1
w 148 -147 124 0
w 148 -147 -124 0
w 149 148 125 1
w 149 148 -125 0
w 149 -148 125 1
w 149 -148 -125 1
w 150 149 126 0.448643
w 150 149 -126 0.123529
w 150 -149 126 0.597479
w 150 -149 -126 0.898107
w 151 150 127 1
w 151 150 -127 1
w 151 -150 127 0
w 151 -150 -127 1
w 152 151 128 0
w 152 151 -128 0
w 152 -151 128 0
w 152 -151 -128 1
w 153 152 129 1
w 153 152 -129 1
w 153 -152 129 1
w 153 -152 -129 0
w 154 153 130 0
w 154 153 -130 1
w 154 -153 130 0
w 154 -153 -130 1
w 155 154 131 1
w 155 154 -131 0
w 155 -154 131 1
w 155 -154 -131 1
w 156 155 132 0.708627
w 156 155 -132 0.479314
w 156 -155 132 0.824687
w 156 -155 -132 0.764901
w 157 156 133 1
w 157 156 -133 1
w 157 -156 133 1
w 157 -156 -133 0
w 158 157 134 0
w 158 157 -134 1
w 158 -157 134 1
w 158 -157 -134 1
w 159 158 135 1
w 159 158 -135 1
w 159 -158 135 0
w 159 -158 -135 1
w 160 159 136 1
w 160 159 -136 0
w 160 -159 136 0
w 160 -159 -136 0
w 161 160 137 1
w 161 160 -137 1
w 161 -160 137 0
w 161 -160 -137 0
w 162 161 138 0
w 162 161 -138 0
w 162 -161 138 1
w 162 -161 -138 0
w 163 162 139 1
w 163 162 -139 1
w 163 -162 139 0
w 163 -162 -139 0
w 164 163 140 1
w 164 163 -140 1
w 164 -163 140 0
w 164 -163 -140 0
w 165 164 141 1
w 165 164 -141 1
w 165 -164 141 0
w 165 -164 -141 0
w 166 165 142 1
w 166 165 -142 0
w 166 -165 142 1
w 166 -165 -142 1
w 167 166 143 0
w 167 166 -143 1
w 167 -166 143 0
w 167 -166 -143 1
w 168 167 144 0.479538
w 168 167 -144 0.578997
w 168 -167 144 0.707958
w 168 -167 -144 0.907301
w 169 145 0.337594
w 169 -145 0.39003
w 170 169 146 1
w 170 169 -146 0
w 170 -169 146 1
w 170 -169 -146 0
w 171 170 147 1
w 171 170 -147 0
w 171 -170 147 1
w 171 -170 -147 0
w 172 171 148 1
w 172 171 -148 0
w 172 -171 148 1
w 172 -171 -148 1
w 173 172 149 0
w 173 172 -149 0
w 173 -172 149 0
w 173 -172 -149 1
w 174 173 150 0
w 174 173 -150 0
w 174 -173 150 0
w 174 -173 -150 1
w 175 174 151 1
w 175 174 -151 0
w 175 -174 151 1
w 175 -174 -151 1
w 176 175 152 0
w 176 175 -152 1
w 176 -175 152 0
w 176 -175 -152 1
w 177 176 153 0.626037
w 177 176 -153 0.81926
w 177 -176 153 0.0187714
w 177 -176 -153 0.508715
w 178 177 154 0.680497
w 178 177 -154 0.926458
w 178 -177 154 0.764226
w 178 -177 -154 0.632843
w 179 178 155 1
w 179 178 -155 1
w 179 -178 155 1
w 179 -178 -155 0
w 180 179 156 0
w 180 179 -156 0
w 180 -179 156 0
w 180 -179 -156 1
w 181 180 157 1
w 181 180 -157 0
w 181 -180 157 0
w 181 -180 -157 1
w 182 181 158 0
w 182 181 -158 1
w 182 -181 158 0
w 182 -181 -158 0
w 183 182 159 0.917555
w 183 182 -159 0.662278
w 183 -182 159 0.673806
w 183 -182 -159 0.936327
w 184 183 160 1
w 184 183 -160 0
w 184 -183 160 1
w 184 -183 -160 0
w 185 184 161 0
w 185 184 -161 1
w 185 -184 161 0
w 185 -184 -161 0
w 186 185 162 0
w 186 185 -162 0
w 186 -185 162 1
w 186 -185 -162 1
w 187 186 163 0
w 187 186 -163 0
w 187 -186 163 1
w 187 -186 -163 1
w 188 187 164 1
w 188 187 -164 1
w 188 -187 164 1
w 188 -187 -164 0
w 189 188 165 0
w 189 188 -165 1
w 189 -188 165 1
w 189 -188 -165 1
w 190 189 166 1
w 190 189 -166 0
w 190 -189 166 0
w 190 -189 -166 1
w 191 190 167 1
w 191 190 -167 0
w 191 -190 167 1
w 191 -190 -167 1
w 192 191 168 1
w 192 191 -168 1
w 192 -191 168 0
w 192 -191 -168 0
w 193 169 0
w 193 -169 1
w 194 193 170 0.707323
w 194 193 -170 0.767192
w 194 -193 170 0.239748
w 194 -193 -170 0.329601
w 195 194 171 1
w 195 194 -171 0
w 195 -194 171 0
w 195 -194 -171 1
w 196 195 172 1
w 196 195 -172 0
w 196 -195 172 0
w 196 -195 -172 0
w 197 196 173 0
w 197 196 -173 1
w 197 -196 173 0
w 197 -196 -173 1
w 198 197 174 0
w 198 197 -174 0
w 198 -197 174 1
w 198 -197 -174 1
w 199 198 175 0
w 199 198 -175 1
w 199 -198 175 0
w 199 -198 -175 0
w 200 199 176 1
w 200 199 -176 1
w 200 -199 176 0
w 200 -199 -176 1
w 201 200 177 1
w 201 200 -177 0
w 201 -200 177 0
w 201 -200 -177 0
w 202 201 178 1
w 202 201 -178 0
w 202 -201 178 0
w 202 -201 -178 0
w 203 202 179 0.60201
w 203 202 -179 0.0392167
w 203 -202 179 0.166895
w 203 -202 -179 0.640414
w 204 203 180 0.644252
w 204 203 -180 0.943896
w 204 -203 180 0.932392
w 204 -203 -180 0.640809
w 205 204 181 0.342358
w 205 204 -181 0.781307
w 205 -204 181 0.207762
w 205 -204 -181 0.16533
w 206 205 182 0
w 206 205 -182 1
w 206 -205 182 1
w 206 -205 -182 1
w 207 206 183 1
w 207 206 -183 0
w 207 -206 183 1
w 207 -206 -183 1
w 208 207 184 0
w 208 207 -184 1
w 208 -207 184 1
w 208 -207 -184 0
w 209 208 185 1
w 209 208 -185 1
w 209 -208 185 0
w 209 -208 -185 1
w 210 209 186 1
w 210 209 -186 0
w 210 -209 186 0
w 210 -209 -186 1
w 211 210 187 1
w 211 210 -187 1
w 211 -210 187 1
w 211 -210 -187 0
w 212 211 188 1
w 212 211 -188 0
w 212 -211 188 0
w 212 -211 -188 0
w 213 212 189 0
w 213 212 -189 0
w 213 -212 189 0
w 213 -212 -189 1
w 214 213 190 0
w 214 213 -190 1
w 214 -213 190 0
w 214 -213 -190 1
w 215 214 191 1
w 215 214 -191 0
w 215 -214 191 1
w 215 -214 -191 1
w 216 215 192 1
w 216 215 -192 0
w 216 -215 192 0
w 216 -215 -192 1
w 217 193 1
w 217 -193 0
w 218 217 194 0
w 218 217 -194 0
w 218 -217 194 0
w 218 -217 -194 1
w 219 218 195 0.0658945
w 219 218 -195 0.0668598
w 219 -218 195 0.391334
w 219 -218 -195 0.49848
w 220 219 196 0.846997
w 220 219 -196 0.442059
w 220 -219 196 0.73415
w 220 -219 -196 0.899261
w 221 220 197 1
w 221 220 -197 0
w 221 -220 197 0
w 221 -220 -197 1
w 222 221 198 0.114256
w 222 221 -198 0.0504116
w 222 -221 198 0.199959
w 222 -221 -198 0.358022
w 223 222 199 0.502753
w 223 222 -199 0.332215
w 223 -222 199 0.128114
w 223 -222 -199 0.733224
w 224 223 200 1
w 224 223 -200 1
w 224 -223 200 1
w 224 -223 -200 0
w 225 224 201 0
w 225 224 -201 0
w 225 -224 201 1
w 225 -224 -201 0
w 226 225 202 1
w 226 225 -202 0
w 226 -225 202 0
w 226 -225 -202 0
w 227 226 203 1
w 227 226 -203 1
w 227 -226 203 0
w 227 -226 -203 1
w 228 227 204 1
w 228 227 -204 1
w 228 -227 204 0
w 228 -227 -204 0
w 229 228 205 0
w 229 228 -205 0
w 229 -228 205 1
w 229 -228 -205 1
w 230 229 206 1
w 230 229 -206 0
w 230 -229 206 0
w 230 -229 -206 0
w 231 230 207 1
w 231 230 -207 1
w 231 -230 207 1
w 231 -230 -207 0
w 232 231 208 1
w 232 231 -208 1
w 232 -231 208 0
w 232 -231 -208 0
w 233 232 209 0
w 233 232 -209 1
w 233 -232 209 1
w 233 -232 -209 0
w 234 233 210 0
w 234 233 -210 1
w 234 -233 210 1
w 234 -233 -210 0
w 235 234 211 1
w 235 234 -211 0
w 235 -234 211 0
w 235 -234 -211 0
w 236 235 212 1
w 236 235 -212 0
w 236 -235 212 0
w 236 -235 -212 1
w 237 236 213 0.958833
w 237 236 -213 0.606308
w 237 -236 213 0.0365263
w 237 -236 -213 0.229605
w 238 237 214 1
w 238 237 -214 0
w 238 -237 214 1
w 238 -237 -214 1
w 239 238 215 0.493303
w 239 238 -215 0.193466
w 239 -238 215 0.392501
w 239 -238 -215 0.379732
w 240 239 216 0
w 240 239 -216 0
w 240 -239 216 1
w 240 -239 -216 1
w 241 217 0.983979
w 241 -217 0.587436
w 242 241 218 1
w 242 241 -218 0
w 242 -241 218 1
w 242 -241 -218 1
w 243 242 219 0
w 243 242 -219 1
w 243 -242 219 0
w 243 -242 -219 1
w 244 243 220 0.542637
w 244 243 -220 0.293517
w 244 -243 220 0.910963
w 244 -243 -220 0.914343
w 245 244 221 0.677679
w 245 244 -221 0.887641
w 245 -244 221 0.3133
w 245 -244 -221 0.871144
w 246 245 222 1
w 246 245 -222 1
w 246 -245 222 0
w 246 -245 -222 0
w 247 246 223 1
w 247 246 -223 0
w 247 -246 223 1
w 247 -246 -223 1
w 248 247 224 1
w 248 247 -224 0
w 248 -247 224 0
w 248 -247 -224 0
w 249 248 225 1
w 249 248 -225 0
w 249 -248 225 0
w 249 -248 -225 1
w 250 249 226 1
w 250 249 -226 1
w 250 -249 226 0
w 250 -249 -226 1
w 251 250 227 0
w 251 250 -227 0
w 251 -250 227 1
w 251 -250 -227 0
w 252 251 228 1
w 252 251 -228 0
w 252 -251 228 0
w 252 -251 -228 1
w 253 252 229 1
w 253 252 -229 1
w 253 -252 229 0
w 253 -252 -229 0
w 254 253 230 0.561074
w 254 253 -230 0.620455
w 254 -253 230 0.834444
w 254 -253 -230 0.622286
w 255 254 231 0.426891
w 255 254 -231 0.125735
w 255 -254 231 0.870454
w 255 -254 -231 0.682484
w 256 255 232 0
w 256 255 -232 1
w 256 -255 232 0
w 256 -255 -232 1
w 257 256 233 0.781334
w 257 256 -233 0.88563
w 257 -256 233 0.627117
w 257 -256 -233 0.677949
w 258 257 234 0.235245
w 258 257 -234 0.854707
w 258 -257 234 0.504387
w 258 -257 -234 0.969646
w 259 258 235 1
w 259 258 -235 0
w 259 -258 235 0
w 259 -258 -235 0
w 260 259 236 0.607347
w 260 259 -236 0.47972
w 260 -259 236 0.619574
w 260 -259 -236 0.441791
w 261 260 237 0
w 261 260 -237 1
w 261 -260 237 1
w 261 -260 -237 0
w 262 261 238 0
w 262 261 -238 1
w 262 -261 238 1
w 262 -261 -238 0
w 263 262 239 0
w 263 262 -239 1
w 263 -262 239 1
w 263 -262 -239 1
w 264 263 240 0
w 264 263 -240 1
w 264 -263 240 1
w 264 -263 -240 0
w 265 241 0
w 265 -241 1
w 266 265 242 0
w 266 265 -242 0
w 266 -265 242 1
w 266 -265 -242 1
w 267 266 243 0.654951
w 267 266 -243 0.619103
w 267 -266 243 0.307966
w 267 -266 -243 0.756957
w 268 267 244 1
w 268 267 -244 1
w 268 -267 244 1
w 268 -267 -244 0
w 269 268 245 0.487073
w 269 268 -245 0.109807
w 269 -268 245 0.567995
w 269 -268 -245 0.573617
w 270 269 246 1
w 270 269 -246 1
w 270 -269 246 0
w 270 -269 -246 1
w 271 270 247 0
w 271 270 -247 0
w 271 -270 247 0
w 271 -270 -247 1
w 272 271 248 0.520203
w 272 271 -248 0.0127038
w 272 -271 248 0.123326
w 272 -271 -248 0.519732
w 273 272 249 0.778277
w 273 272 -249 0.138835
w 273 -272 249 0.186846
w 273 -272 -249 0.535234
w 274 273 250 0
w 274 273 -250 0
w 274 -273 250 1
w 274 -273 -250 0
w 275 274 251 0
w 275 274 -251 1
w 275 -274 251 1
w 275 -274 -251 0
w 276 275 252 0
w 276 275 -252 0
w 276 -275 252 1
w 276 -275 -252 1
w 277 276 253 0.279881
w 277 276 -253 0.325603
w 277 -276 253 0.632504
w 277 -276 -253 0.799673
w 278 277 254 1
w 278 277 -254 1
w 278 -277 254 0
w 278 -277 -254 0
w 279 278 255 0.971062
w 279 278 -255 0.482203
w 279 -278 255 0.978442
w 279 -278 -255 0.157908
w 280 279 256 0
w 280 279 -256 0
w 280 -279 256 1
w 280 -279 -256 1
w 281 280 257 0
w 281 280 -257 1
w 281 -280 257 0
w 281 -280 -257 1
w 282 281 258 0.396875
w 282 281 -258 0.930808
w 282 -281 258 0.336361
w 282 -281 -258 0.261096
w 283 282 259 1
w 283 282 -259 0
w 283 -282 259 0
w 283 -282 -259 0
w 284 283 260 1
w 284 283 -260 1
w 284 -283 260 0
w 284 -283 -260 0
w 285 284 261 0
w 285 284 -261 0
w 285 -284 261 0
w 285 -284 -261 1
w 286 285 262 0
w 286 285 -262 1
w 286 -285 262 0
w 286 -285 -262 1
w 287 286 263 0.178855
w 287 286 -263 0.799512
w 287 -286 263 0.674499
w 287 -286 -263 0.104413
w 288 287 264 1
w 288 287 -264 0
w 288 -287 264 1
w 288 -287 -264 1
w 289 265 1
w 289 -265 0
w 290 289 266 0.561474
w 290 289 -266 0.0849116
w 290 -289 266 0.214096
w 290 -289 -266 0.0668816
w 291 290 267 0
w 291 290 -267 1
w 291 -290 267 0
w 291 -290 -267 0
w 292 291 268 1
w 292 291 -268 0
w 292 -291 268 1
w 292 -291 -268 0
w 293 292 269 0
w 293 292 -269 1
w 293 -292 269 0
w 293 -292 -269 0
w 294 293 270 1
w 294 293 -270 0
w 294 -293 270 0
w 294 -293 -270 0
w 295 294 271 0.690238
w 295 294 -271 0.966785
w 295 -294 271 0.14666
w 295 -294 -271 0.825784
w 296 295 272 0
w 296 295 -272 1
w 296 -295 272 1
w 296 -295 -272 0
w 297 296 273 1
w 297 296 -273 0
w 297 -296 273 0
w 297 -296 -273 0
w 298 297 274 0
w 298 297 -274 1
w 298 -297 274 1
w 298 -297 -274 1
w 299 298 275 0
w 299 298 -275 1
w 299 -298 275 0
w 299 -298 -275 0
w 300 299 276 0
w 300 299 -276 1
w 300 -299 276 0
w 300 -299 -276 1
w 301 300 277 0
w 301 300 -277 1
w 301 -300 277 0
w 301 -300 -277 1
w 302 301 278 0
w 302 301 -278 1
w 302 -301 278 0
w 302 -301 -278 1
w 303 302 279 0
w 303 302 -279 0
w 303 -302 279 1
w 303 -302 -279 0
w 304 303 280 0
w 304 303 -280 1
w 304 -303 280 0
w 304 -303 -280 1
w 305 304 281 0
w 305 304 -281 1
w 305 -304 281 1
w 305 -304 -281 0
w 306 305 282 0.761161
w 306 305 -282 0.33503
w 306 -305 282 0.311752
w 306 -305 -282 0.497099
w 307 306 283 1
w 307 306 -283 0
w 307 -306 283 0
w 307 -306 -283 0
w 308 307 284 0
w 308 307 -284 0
w 308 -307 284 1
w 308 -307 -284 1
w 309 308 285 1
w 309 308 -285 0
w 309 -308 285 1
w 309 -308 -285 0
w 310 309 286 0
w 310 309 -286 0
w 310 -309 286 0
w 310 -309 -286 1
w 311 310 287 1
w 311 310 -287 1
w 311 -310 287 1
w 311 -310 -287 0
w 312 311 288 0
w 312 311 -288 0
w 312 -311 288 1
w 312 -311 -288 1
w 313 289 0
w 313 -289 1
w 314 313 290 0
w 314 313 -290 0
w 314 -313 290 1
w 314 -313 -290 1
w 315 314 291 1
w 315 314 -291 0
w 315 -314 291 0
w 315 -314 -291 1
w 316 315 292 0
w 316 315 -292 0
w 316 -315 292 1
w 316 -315 -292 1
w 317 316 293 0.879229
w 317 316 -293 0.774293
w 317 -316 293 0.635147
w 317 -316 -293 0.437845
w 318 317 294 1
w 318 317 -294 1
w 318 -317 294 0
w 318 -317 -294 1
w 319 318 295 1
w 319 318 -295 1
w 319 -318 295 0
w 319 -318 -295 0
w 320 319 296 1
w 320 319 -296 0
w 320 -319 296 1
w 320 -319 -296 1
w 321 320 297 0
w 321 320 -297 0
w 321 -320 297 1
w 321 -320 -297 1
w 322 321 298 1
w 322 321 -298 1
w 322 -321 298 0
w 322 -321 -298 0
w 323 322 299 1
w 323 322 -299 0
w 323 -322 299 1
w 323 -322 -299 1
w 324 323 300 1
w 324 323 -300 0
w 324 -323 300 1
w 324 -323 -300 0
w 325 324 301 0
w 325 324 -301 1
w 325 -324 301 1
w 325 -324 -301 1
w 326 325 302 0
w 326 325 -302 0
w 326 -325 302 0
w 326 -325 -302 1
w 327 326 303 1
w 327 326 -303 0
w 327 -326 303 0
w 327 -326 -303 1
w 328 327 304 0.245411
w 328 327 -304 0.0367533
w 328 -327 304 0.900547
w 328 -327 -304 0.956633
w 329 328 305 1
w 329 328 -305 0
w 329 -328 305 1
w 329 -328 -305 0
w 330 329 306 1
w 330 329 -306 0
w 330 -329 306 0
w 330 -329 -306 1
w 331 330 307 0
w 331 330 -307 1
w 331 -330 307 1
w 331 -330 -307 1
w 332 331 308 0
w 332 331 -308 1
w 332 -331 308 1
w 332 -331 -308 0
w 333 332 309 0
w 333 332 -309 0
w 333 -332 309 0
w 333 -332 -309 1
w 334 333 310 0.787142
w 334 333 -310 0.744811
w 334 -333 310 0.656639
w 334 -333 -310 0.743775
w 335 334 311 0.102694
w 335 334 -311 0.176508
w 335 -334 311 0.916468
w 335 -334 -311 0.868551
w 336 335 312 0
w 336 335 -312 1
w 336 -335 312 1
w 336 -335 -312 1
w 337 313 1
w 337 -313 0
w 338 337 314 0.740067
w 338 337 -314 0.262794
w 338 -337 314 0.954651
w 338 -337 -314 0.205334
w 339 338 315 0
w 339 338 -315 1
w 339 -338 315 0
w 339 -338 -315 0
w 340 339 316 0.548591
w 340 339 -316 0.0999812
w 340 -339 316 0.652257
w 340 -339 -316 0.304682
w 341 340 317 0.397068
w 341 340 -317 0.961321
w 341 -340 317 0.630898
w 341 -340 -317 0.251606
w 342 341 318 0
w 342 341 -318 1
w 342 -341 318 0
w 342 -341 -318 0
w 343 342 319 0
w 343 342 -319 1
w 343 -342 319 0
w 343 -342 -319 1
w 344 343 320 1
w 344 343 -320 0
w 344 -343 320 1
w 344 -343 -320 0
w 345 344 321 1
w 345 344 -321 0
w 345 -344 321 0
w 345 -344 -321 1
w 346 345 322 0
w 346 345 -322 1
w 346 -345 322 1
w 346 -345 -322 0
w 347 346 323 0
w 347 346 -323 0
w 347 -346 323 1
w 347 -346 -323 1
w 348 347 324 0
w 348 347 -324 1
w 348 -347 324 0
w 348 -347 -324 1
w 349 348 325 0
w 349 348 -325 1
w 349 -348 325 1
w 349 -348 -325 0
w 350 349 326 0
w 350 349 -326 1
w 350 -349 326 0
w 350 -349 -326 1
w 351 350 327 1
w 351 350 -327 0
w 351 -350 327 1
w 351 -350 -327 0
w 352 351 328 0.69716
w 352 351 -328 0.3312
w 352 -351 328 0.209814
w 352 -351 -328 0.307145
w 353 352 329 0.803181
w 353 352 -329 0.804253
w 353 -352 329 0.999469
w 353 -352 -329 0.357869
w 354 353 330 0.283744
w 354 353 -330 0.976572
w 354 -353 330 0.86767
w 354 -353 -330 0.736093
w 355 354 331 0
w 355 354 -331 0
w 355 -354 331 0
w 355 -354 -331 1
w 356 355 332 0.283906
w 356 355 -332 0.286173
w 356 -355 332 0.0551024
w 356 -355 -332 0.949134
w 357 356 333 1
w 357 356 -333 0
w 357 -356 333 1
w 357 -356 -333 1
w 358 357 334 1
w 358 357 -334 1
w 358 -357 334 1
w 358 -357 -334 0
w 359 358 335 0.597371
w 359 358 -335 0.286219
w 359 -358 335 0.903175
w 359 -358 -335 0.95524
w 360 359 336 1
w 360 359 -336 0
w 360 -359 336 0
w 360 -359 -336 1
w 361 337 0
w 361 -337 1
w 362 361 338 0
w 362 361 -338 1
w 362 -361 338 0
w 362 -361 -338 1
w 363 362 339 0
w 363 362 -339 1
w 363 -362 339 0
w 363 -362 -339 1
w 364 363 340 1
w 364 363 -340 0
w 364 -363 340 1
w 364 -363 -340 0
w 365 364 341 0
w 365 364 -341 1
w 365 -364 341 0
w 365 -364 -341 1
w 366 365 342 0
w 366 365 -342 1
w 366 -365 342 1
w 366 -365 -342 0
w 367 366 343 1
w 367 366 -343 0
w 367 -366 343 0
w 367 -366 -343 0
w 368 367 344 0
w 368 367 -344 1
w 368 -367 344 0
w 368 -367 -344 0
w 369 368 345 0
w 369 368 -345 1
w 369 -368 345 1
w 369 -368 -345 1
w 370 369 346 0.768941
w 370 369 -346 0.336533
w 370 -369 346 0.514926
w 370 -369 -346 0.858767
w 371 370 347 0.0649069
w 371 370 -347 0.742783
w 371 -370 347 0.813572
w 371 -370 -347 0.518594
w 372 371 348 0
w 372 371 -348 1
w 372 -371 348 1
w 372 -371 -348 0
w 373 372 349 1
w 373 372 -349 0
w 373 -372 349 0
w 373 -372 -349 1
w 374 373 350 0
w 374 373 -350 0
w 374 -373 350 1
w 374 -373 -350 0
w 375 374 351 0
w 375 374 -351 0
w 375 -374 351 1
w 375 -374 -351 1
w 376 375 352 0.143178
w 376 375 -352 0.636331
w 376 -375 352 0.134127
w 376 -375 -352 0.658103
w 377 376 353 1
w 377 376 -353 0
w 377 -376 353 0
w 377 -376 -353 1
w 378 377 354 0
w 378 377 -354 1
w 378 -377 354 0
w 378 -377 -354 1
w 379 378 355 0
w 379 378 -355 1
w 379 -378 355 1
w 379 -378 -355 1
w 380 379 356 1
w 380 379 -356 1
w 380 -379 356 0
w 380 -379 -356 0
w 381 380 357 0
w 381 380 -357 0
w 381 -380 357 0
w 381 -380 -357 1
w 382 381 358 0
w 382 381 -358 1
w 382 -381 358 0
w 382 -381 -358 0
w 383 382 359 1
w 383 382 -359 0
w 383 -382 359 1
w 383 -382 -359 1
w 384 383 360 1
w 384 383 -360 1
w 384 -383 360 0
w 384 -383 -360 1
w 385 361 1
w 385 -361 0
w 386 385 362 0
w 386 385 -362 0
w 386 -385 362 1
w 386 -385 -362 0
w 387 386 363 0
w 387 386 -363 1
w 387 -386 363 1
w 387 -386 -363 0
w 388 387 364 1
w 388 387 -364 1
w 388 -387 364 1
w 388 -387 -364 0
w 389 388 365 1
w 389 388 -365 0
w 389 -388 365 0
w 389 -388 -365 0
w 390 389 366 1
w 390 389 -366 1
w 390 -389 366 1
w 390 -389 -366 0
w 391 390 367 0.887521
w 391 390 -367 0.133171
w 391 -390 367 0.280329
w 391 -390 -367 0.676748
w 392 391 368 0
w 392 391 -368 0
w 392 -391 368 1
w 392 -391 -368 0
w 393 392 369 1
w 393 392 -369 1
w 393 -392 369 0
w 393 -392 -369 0
w 394 393 370 1
w 394 393 -370 1
w 394 -393 370 0
w 394 -393 -370 1
w 395 394 371 1
w 395 394 -371 0
w 395 -394 371 0
w 395 -394 -371 0
w 396 395 372 0.474999
w 396 395 -372 0.598472
w 396 -395 372 0.46701
w 396 -395 -372 0.925743
w 397 396 373 1
w 397 396 -373 0
w 397 -396 373 0
w 397 -396 -373 0
w 398 397 374 0
w 398 397 -374 1
w 398 -397 374 1
w 398 -397 -374 1
w 399 398 375 0
w 399 398 -375 1
w 399 -398 375 1
w 399 -398 -375 1
w 400 399 376 0
w 400 399 -376 1
w 400 -399 376 0
w 400 -399 -376 0
w 401 400 377 0
w 401 400 -377 1
w 401 -400 377 0
w 401 -400 -377 0
w 402 401 378 0
w 402 401 -378 1
w 402 -401 378 1
w 402 -401 -378 1
w 403 402 379 0.0222415
w 403 402 -379 0.78461
w 403 -402 379 0.811133
w 403 -402 -379 0.0535199
w 404 403 380 1
w 404 403 -380 0
w 404 -403 380 1
w 404 -403 -380 0
w 405 404 381 0
w 405 404 -381 0
w 405 -404 381 1
w 405 -404 -381 1
w 406 405 382 0
w 406 405 -382 1
w 406 -405 382 1
w 406 -405 -382 0
w 407 406 383 1
w 407 406 -383 0
w 407 -406 383 1
w 407 -406 -383 0
w 408 407 384 0
w 408 407 -384 0
w 408 -407 384 1
w 408 -407 -384 1
w 409 385 1
w 409 -385 0
w 410 409 386 0.473104
w 410 409 -386 0.774209
w 410 -409 386 0.916991
w 410 -409 -386 0.668527
w 411 410 387 1
w 411 410 -387 0
w 411 -410 387 1
w 411 -410 -387 1
w 412 411 388 1
w 412 411 -388 1
w 412 -411 388 0
w 412 -411 -388 1
w 413 412 389 0
w 413 412 -389 1
w 413 -412 389 1
w 413 -412 -389 0
w 414 413 390 1
w 414 413 -390 1
w 414 -413 390 0
w 414 -413 -390 1
w 415 414 391 1
w 415 414 -391 0
w 415 -414 391 1
w 415 -414 -391 0
w 416 415 392 0
w 416 415 -392 1
w 416 -415 392 0
w 416 -415 -392 1
w 417 416 393 1
w 417 416 -393 0
w 417 -416 393 1
w 417 -416 -393 0
w 418 417 394 0
w 418 417 -394 1
w 418 -417 394 1
w 418 -417 -394 0
w 419 418 395 0
w 419 418 -395 0
w 419 -418 395 0
w 419 -418 -395 1
w 420 419 396 0
w 420 419 -396 0
w 420 -419 396 1
w 420 -419 -396 1
w 421 420 397 1
w 421 420 -397 0
w 421 -420 397 1
w 421 -420 -397 0
w 422 421 398 0.822941
w 422 421 -398 0.888058
w 422 -421 398 0.667346
w 422 -421 -398 0.245912
w 423 422 399 0.0544884
w 423 422 -399 0.845765
w 423 -422 399 0.668793
w 423 -422 -399 0.709351
w 424 423 400 0.814968
w 424 423 -400 0.692047
w 424 -423 400 0.822469
w 424 -423 -400 0.469228
w 425 424 401 1
w 425 424 -401 0
w 425 -424 401 0
w 425 -424 -401 1
w 426 425 402 1
w 426 425 -402 1
w 426 -425 402 1
w 426 -425 -402 0
w 427 426 403 0
w 427 426 -403 1
w 427 -426 403 0
w 427 -426 -403 0
w 428 427 404 0.820346
w 428 427 -404 0.392685
w 428 -427 404 0.782496
w 428 -427 -404 0.487693
w 429 428 405 0
w 429 428 -405 1
w 429 -428 405 1
w 429 -428 -405 0
w 430 429 406 0
w 430 429 -406 1
w 430 -429 406 0
w 430 -429 -406 0
w 431 430 407 0
w 431 430 -407 1
w 431 -430 407 0
w 431 -430 -407 1
w 432 431 408 0.824932
w 432 431 -408 0.254146
w 432 -431 408 0.93509
w 432 -431 -408 0.732007
w 433 409 0
w 433 -409 1
w 434 433 410 0
w 434 433 -410 0
w 434 -433 410 0
w 434 -433 -410 1
w 435 434 411 0.0900012
w 435 434 -411 0.0334803
w 435 -434 411 0.283137
w 435 -434 -411 0.728598
w 436 435 412 0
w 436 435 -412 0
w 436 -435 412 1
w 436 -435 -412 1
w 437 436 413 1
w 437 436 -413 1
w 437 -436 413 0
w 437 -436 -413 1
w 438 437 414 1
w 438 437 -414 0
w 438 -437 414 1
w 438 -437 -414 1
w 439 438 415 0
w 439 438 -415 1
w 439 -438 415 1
w 439 -438 -415 0
w 440 439 416 0.341429
w 440 439 -416 0.94596
w 440 -439 416 0.456107
w 440 -439 -416 0.592414
w 441 440 417 0
w 441 440 -417 0
w 441 -440 417 1
w 441 -440 -417 1
w 442 441 418 1
w 442 441 -418 1
w 442 -441 418 1
w 442 -441 -418 0
w 443 442 419 0.834713
w 443 442 -419 0.947143
w 443 -442 419 0.54795
w 443 -442 -419 0.165091
w 444 443 420 0
w 444 443 -420 0
w 444 -443 420 0
w 444 -443 -420 1
w 445 444 421 0
w 445 444 -421 1
w 445 -444 421 1
w 445 -444 -421 1
w 446 445 422 0
w 446 445 -422 1
w 446 -445 422 1
w 446 -445 -422 1
w 447 446 423 1
w 447 446 -423 1
w 447 -446 423 0
w 447 -446 -423 0
w 448 447 424 1
w 448 447 -424 1
w 448 -447 424 0
w 448 -447 -424 1
w 449 448 425 0
w 449 448 -425 1
w 449 -448 425 1
w 449 -448 -425 1
w 450 449 426 1
w 450 449 -426 1
w 450 -449 426 1
w 450 -449 -426 0
w 451 450 427 0
w 451 450 -427 0
w 451 -450 427 0
w 451 -450 -427 1
w 452 451 428 0
w 452 451 -428 0
w 452 -451 428 1
w 452 -451 -428 1
w 453 452 429 0
w 453 452 -429 1
w 453 -452 429 1
w 453 -452 -429 1
w 454 453 430 0
w 454 453 -430 0
w 454 -453 430 1
w 454 -453 -430 0
w 455 454 431 1
w 455 454 -431 0
w 455 -454 431 1
w 455 -454 -431 1
w 456 455 432 1
w 456 455 -432 0
w 456 -455 432 0
w 456 -455 -432 0
w 457 433 0.896772
w 457 -433 0.946013
w 458 457 434 0
w 458 457 -434 0
w 458 -457 434 1
w 458 -457 -434 1
w 459 458 435 0
w 459 458 -435 1
w 459 -458 435 0
w 459 -458 -435 0
w 460 459 436 0.448221
w 460 459 -436 0.00555966
w 460 -459 436 0.889139
w 460 -459 -436 0.290908
w 461 460 437 1
w 461 460 -437 0
w 461 -460 437 1
w 461 -460 -437 1
w 462 461 438 0
w 462 461 -438 0
w 462 -461 438 0
w 462 -461 -438 1
w 463 462 439 1
w 463 462 -439 0
w 463 -462 439 0
w 463 -462 -439 0
w 464 463 440 1
w 464 463 -440 0
w 464 -463 440 0
w 464 -463 -440 0
w 465 464 441 0
w 465 464 -441 0
w 465 -464 441 1
w 465 -464 -441 0
w 466 465 442 0
w 466 465 -442 0
w 466 -465 442 1
w 466 -465 -442 1
w 467 466 443 0.617662
w 467 466 -443 0.169963
w 467 -466 443 0.745876
w 467 -466 -443 0.0424749
w 468 467 444 0.148346
w 468 467 -444 0.12151
w 468 -467 444 0.0852129
w 468 -467 -444 0.361072
w 469 468 445 1
w 469 468 -445 0
w 469 -468 445 0
w 469 -468 -445 0
w 470 469 446 0.446632
w 470 469 -446 0.837276
w 470 -469 446 0.524453
w 470 -469 -446 0.376373
w 471 470 447 0.58847
w 471 470 -447 0.918007
w 471 -470 447 0.210306
w 471 -470 -447 0.803914
w 472 471 448 0.239437
w 472 471 -448 0.898672
w 472 -471 448 0.459836
w 472 -471 -448 0.274128
w 473 472 449 0.245769
w 473 472 -449 0.89179
w 473 -472 449 0.0525329
w 473 -472 -449 0.991645
w 474 473 450 0.827299
w 474 473 -450 0.139992
w 474 -473 450 0.0557747
w 474 -473 -450 0.912512
w 475 474 451 1
w 475 474 -451 1
w 475 -474 451 0
w 475 -474 -451 1
w 476 475 452 1
w 476 475 -452 0
w 476 -475 452 0
w 476 -475 -452 0
w 477 476 453 1
w 477 476 -453 0
w 477 -476 453 0
w 477 -476 -453 1
w 478 477 454 1
w 478 477 -454 0
w 478 -477 454 0
w 478 -477 -454 1
w 479 478 455 1
w 479 478 -455 0
w 479 -478 455 0
w 479 -478 -455 0
w 480 479 456 0.724555
w 480 479 -456 0.0940642
w 480 -479 456 0.952279
w 480 -479 -456 0.637066
w 481 457 0
w 481 -457 1
w 482 481 458 1
w 482 481 -458 1
w 482 -481 458 0
w 482 -481 -458 0
w 483 482 459 0.228043
w 483 482 -459 0.600812
w 483 -482 459 0.165174
w 483 -482 -459 0.57462
w 484 483 460 0.457186
w 484 483 -460 0.131503
w 484 -483 460 0.92386
w 484 -483 -460 0.714008
w 485 484 461 0.886012
w 485 484 -461 0.430667
w 485 -484 461 0.998272
w 485 -484 -461 0.730735
w 486 485 462 1
w 486 485 -462 1
w 486 -485 462 0
w 486 -485 -462 1
w 487 486 463 1
w 487 486 -463 1
w 487 -486 463 0
w 487 -486 -463 1
w 488 487 464 0
w 488 487 -464 1
w 488 -487 464 1
w 488 -487 -464 1
w 489 488 465 1
w 489 488 -465 1
w 489 -488 465 0
w 489 -488 -465 1
w 490 489 466 1
w 490 489 -466 0
w 490 -489 466 1
w 490 -489 -466 0
w 491 490 467 0
w 491 490 -467 1
w 491 -490 467 0
w 491 -490 -467 0
w 492 491 468 0.378935
w 492 491 -468 0.143832
w 492 -491 468 0.628516
w 492 -491 -468 0.731481
w 493 492 469 1
w 493 492 -469 0
w 493 -492 469 0
w 493 -492 -469 0
w 494 493 470 1
w 494 493 -470 0
w 494 -493 470 1
w 494 -493 -470 1
w 495 494 471 0
w 495 494 -471 1
w 495 -494 471 0
w 495 -494 -471 0
w 496 495 472 0
w 496 495 -472 1
w 496 -495 472 1
w 496 -495 -472 0
w 497 496 473 0
w 497 496 -473 0
w 497 -496 473 1
w 497 -496 -473 0
w 498 497 474 1
w 498 497 -474 1
w 498 -497 474 1
w 498 -497 -474 0
w 499 498 475 1
w 499 498 -475 0
w 499 -498 475 0
w 499 -498 -475 0
w 500 499 476 0.213597
w 500 499 -476 0.186455
w 500 -499 476 0.913375
w 500 -499 -476 0.23096
w 501 500 477 1
w 501 500 -477 0
w 501 -500 477 0
w 501 -500 -477 1
w 502 501 478 0
w 502 501 -478 0
w 502 -501 478 1
w 502 -501 -478 0
w 503 502 479 1
w 503 502 -479 0
w 503 -502 479 0
w 503 -502 -479 1
w 504 503 480 1
w 504 503 -480 0
w 504 -503 480 1
w 504 -503 -480 1
w 505 481 0
w 505 -481 1
w 506 505 482 0.584289
w 506 505 -482 0.17311
w 506 -505 482 0.801197
w 506 -505 -482 0.797886
w 507 506 483 1
w 507 506 -483 1
w 507 -506 483 0
w 507 -506 -483 0
w 508 507 484 0
w 508 507 -484 1
w 508 -507 484 0
w 508 -507 -484 0
w 509 508 485 0.813672
w 509 508 -485 0.189731
w 509 -508 485 0.976248
w 509 -508 -485 0.218774
w 510 509 486 0
w 510 509 -486 0
w 510 -509 486 1
w 510 -509 -486 0
w 511 510 487 0.789468
w 511 510 -487 0.621888
w 511 -510 487 0.0626231
w 511 -510 -487 0.998751
w 512 511 488 0.921986
w 512 511 -488 0.58304
w 512 -511 488 0.971648
w 512 -511 -488 0.723183
w 513 512 489 0
w 513 512 -489 0
w 513 -512 489 1
w 513 -512 -489 0
w 514 513 490 0.440336
w 514 513 -490 0.979859
w 514 -513 490 0.958925
w 514 -513 -490 0.128267
w 515 514 491 0.802724
w 515 514 -491 0.941938
w 515 -514 491 0.0934447
w 515 -514 -491 0.778972
w 516 515 492 1
w 516 515 -492 1
w 516 -515 492 1
w 516 -515 -492 0
w 517 516 493 1
w 517 516 -493 0
w 517 -516 493 1
w 517 -516 -493 0
w 518 517 494 1
w 518 517 -494 1
w 518 -517 494 0
w 518 -517 -494 1
w 519 518 495 1
w 519 518 -495 1
w 519 -518 495 1
w 519 -518 -495 0
w 520 519 496 0
w 520 519 -496 1
w 520 -519 496 1
w 520 -519 -496 1
w 521 520 497 1
w 521 520 -497 0
w 521 -520 497 1
w 521 -520 -497 1
w 522 521 498 1
w 522 521 -498 0
w 522 -521 498 1
w 522 -521 -498 0
w 523 522 499 1
w 523 522 -499 1
w 523 -522 499 1
w 523 -522 -499 0
w 524 523 500 0
w 524 523 -500 1
w 524 -523 500 1
w 524 -523 -500 1
w 525 524 501 0
w 525 524 -501 1
w 525 -524 501 0
w 525 -524 -501 1
w 526 525 502 0
w 526 525 -502 0
w 526 -525 502 1
w 526 -525 -502 1
w 527 526 503 0.456576
w 527 526 -503 0.679658
w 527 -526 503 0.732606
w 527 -526 -503 0.667872
w 528 527 504 0.837838
w 528 527 -504 0.0838567
w 528 -527 504 0.113937
w 528 -527 -504 0.778522
w 529 505 0.471358
w 529 -505 0.364748
w 530 529 506 0
w 530 529 -506 0
w 530 -529 506 1
w 530 -529 -506 1
w 531 530 507 1
w 531 530 -507 0
w 531 -530 507 0
w 531 -530 -507 1
w 532 531 508 0
w 532 531 -508 0
w 532 -531 508 0
w 532 -531 -508 1
w 533 532 509 1
w 533 532 -509 0
w 533 -532 509 0
w 533 -532 -509 1
w 534 533 510 0
w 534 533 -510 1
w 534 -533 510 1
w 534 -533 -510 1
w 535 534 511 1
w 535 534 -511 0
w 535 -534 511 1
w 535 -534 -511 1
w 536 535 512 1
w 536 535 -512 1
w 536 -535 512 0
w 536 -535 -512 0
w 537 536 513 1
w 537 536 -513 0
w 537 -536 513 1
w 537 -536 -513 1
w 538 537 514 1
w 538 537 -514 1
w 538 -537 514 0
w 538 -537 -514 1
w 539 538 515 1
w 539 538 -515 0
w 539 -538 515 1
w 539 -538 -515 0
w 540 539 516 0
w 540 539 -516 0
w 540 -539 516 1
w 540 -539 -516 1
w 541 540 517 0
w 541 540 -517 0
w 541 -540 517 0
w 541 -540 -517 1
w 542 541 518 1
w 542 541 -518 0
w 542 -541 518 1
w 542 -541 -518 1
w 543 542 519 0.484942
w 543 542 -519 0.418871
w 543 -542 519 0.880776
w 543 -542 -519 0.049121
w 544 543 520 0.890178
w 544 543 -520 0.543815
w 544 -543 520 0.464687
w 544 -543 -520 0.119508
w 545 544 521 0
w 545 544 -521 1
w 545 -544 521 0
w 545 -544 -521 1
w 546 545 522 0
w 546 545 -522 1
w 546 -545 522 1
w 546 -545 -522 1
w 547 546 523 1
w 547 546 -523 1
w 547 -546 523 0
w 547 -546 -523 1
w 548 547 524 0.112499
w 548 547 -524 0.0946517
w 548 -547 524 0.0206902
w 548 -547 -524 0.894814
w 549 548 525 0
w 549 548 -525 0
w 549 -548 525 1
w 549 -548 -525 0
w 550 549 526 1
w 550 549 -526 0
w 550 -549 526 0
w 550 -549 -526 1
w 551 550 527 0
w 551 550 -527 0
w 551 -550 527 0
w 551 -550 -527 1
w 552 551 528 0
w 552 551 -528 0
w 552 -551 528 0
w 552 -551 -528 1
w 553 529 0.143374
w 553 -529 0.216419
w 554 553 530 0
w 554 553 -530 1
w 554 -553 530 1
w 554 -553 -530 0
w 555 554 531 1
w 555 554 -531 0
w 555 -554 531 1
w 555 -554 -531 1
w 556 555 532 1
w 556 555 -532 1
w 556 -555 532 0
w 556 -555 -532 1
w 557 556 533 0
w 557 556 -533 0
w 557 -556 533 1
w 557 -556 -533 0
w 558 557 534 0
w 558 557 -534 1
w 558 -557 534 0
w 558 -557 -534 0
w 559 558 535 1
w 559 558 -535 0
w 559 -558 535 1
w 559 -558 -535 1
w 560 559 536 1
w 560 559 -536 1
w 560 -559 536 1
w 560 -559 -536 0
w 561 560 537 0
w 561 560 -537 0
w 561 -560 537 1
w 561 -560 -537 0
w 562 561 538 0.937858
w 562 561 -538 0.00982472
w 562 -561 538 0.0583933
w 562 -561 -538 0.551919
w 563 562 539 0
w 563 562 -539 0
w 563 -562 539 1
w 563 -562 -539 1
w 564 563 540 1
w 564 563 -540 0
w 564 -563 540 1
w 564 -563 -540 1
w 565 564 541 0
w 565 564 -541 1
w 565 -564 541 1
w 565 -564 -541 0
w 566 565 542 1
w 566 565 -542 1
w 566 -565 542 1
w 566 -565 -542 0
w 567 566 543 0.936791
w 567 566 -543 0.915463
w 567 -566 543 0.831475
w 567 -566 -543 0.80698
w 568 567 544 0.8413
w 568 567 -544 0.865373
w 568 -567 544 0.405241
w 568 -567 -544 0.925767
w 569 568 545 1
w 569 568 -545 0
w 569 -568 545 1
w 569 -568 -545 1
w 570 569 546 0
w 570 569 -546 0
w 570 -569 546 1
w 570 -569 -546 0
w 571 570 547 0
w 571 570 -547 1
w 571 -570 547 0
w 571 -570 -547 0
w 572 571 548 1
w 572 571 -548 1
w 572 -571 548 1
w 572 -571 -548 0
w 573 572 549 0.926311
w 573 572 -549 0.341576
w 573 -572 549 0.882347
w 573 -572 -549 0.757787
w 574 573 550 0
w 574 573 -550 0
w 574 -573 550 0
w 574 -573 -550 1
w 575 574 551 1
w 575 574 -551 1
w 575 -574 551 0
w 575 -574 -551 0
w 576 575 552 0
w 576 575 -552 1
w 576 -575 552 1
w 576 -575 -552 1